# Solution for model JobShopModel
# Objective value = 75
y[0,0,1] 1
y[0,1,1] 1
y[1,0,0] 1
y[1,1,1] 1
y[2,0,1] 1
y[2,1,1] 1
x[0,0,0,0] 0
x[0,0,0,1] 1
x[0,0,1,0] 0
x[0,0,1,1] 0
x[0,0,2,0] 0
x[0,0,2,1] 0
x[0,1,0,0] 0
x[0,1,0,1] 0
x[0,1,1,0] 0
x[0,1,1,1] 0
x[0,1,2,0] 0
x[0,1,2,1] 0
x[1,0,0,0] 0
x[1,0,0,1] 0
x[1,0,1,0] 0
x[1,0,1,1] 0
x[1,0,2,0] 0
x[1,0,2,1] 0
x[1,1,0,0] 0
x[1,1,0,1] 0
x[1,1,1,0] 0
x[1,1,1,1] 0
x[1,1,2,0] 1
x[1,1,2,1] 1
x[2,0,0,0] 0
x[2,0,0,1] 0
x[2,0,1,0] 0
x[2,0,1,1] 0
x[2,0,2,0] 0
x[2,0,2,1] 1
x[2,1,0,0] 0
x[2,1,0,1] 0
x[2,1,1,0] 0
x[2,1,1,1] 0
x[2,1,2,0] 0
x[2,1,2,1] 0
s[0,0,1] 1.0000000000004514e+01
s[0,1,1] 7.5904852242057689e-12
s[1,0,0] 5.0000000000009706e+01
s[1,1,1] 4.7000000000003141e+01
s[2,0,1] 30.00000000001
s[2,1,1] 2.3000000000001268e+01
Z_FO 75
C49 1
C50 1
C51 1
